--- Job ColoringProblemGraph.gms Start 07/12/22 10:15:00 39.2.0 e0c5072f WEX-WEI x86 64bit/MS Windows
--- Applying:
    C:\GAMS\39\gmsprmNT.txt
    C:\Users\erwin\Documents\GAMS\gamsconfig.yaml
--- GAMS Parameters defined
    Input C:\projects\OptimizationModels\GraphColoring\ColoringProblemGraph.gms
    PageWidth 120
    PageSize 0
    ScrDir C:\projects\OptimizationModels\GraphColoring\225a\
    SysDir C:\GAMS\39\
    LogOption 3
    ErrMsg 1
    ErrorLog 99
    IDE 1
    LstTitleLeftAligned 1
Licensee: Eval License                                   G211206|0002CO-GEN
          Amsterdam Optimization Modeling Group,                     DCE378
          C:\Users\erwin\Documents\GAMS\gamslice.txt
          License Admin: Erwin Kalvelagen, info@amsterdamoptimization.com  
          Evaluation license: Not for commercial or production use
Processor information: 1 socket(s), 8 core(s), and 16 thread(s) available
GAMS 39.2.0   Copyright (C) 1987-2022 GAMS Development. All rights reserved
--- Starting compilation
--- ColoringProblemGraph.gms(94) 3 Mb
--- Starting execution: elapsed 0:00:00.000
--- ColoringProblemGraph.gms(52) 4 Mb
--- Generating MIQCP model color1
--- ColoringProblemGraph.gms(53) 6 Mb
---   11 rows  31 columns  61 non-zeroes
---   542 nl-code  30 nl-non-zeroes
---   30 discrete-columns
--- Range statistics (absolute non-zero finite values)
--- RHS       [min, max] : [ 1.000E+00, 1.000E+00] - Zero values observed as well
--- Bound     [min, max] : [ 1.000E+00, 1.000E+00] - Zero values observed as well
--- Matrix    [min, max] : [ 1.000E+00, 1.000E+00] - Zero values observed as well
--- ColoringProblemGraph.gms(53) 4 Mb
--- Executing CPLEX (Solvelink=2): elapsed 0:00:00.000

IBM ILOG CPLEX   39.2.0 e0c5072f Jun 2, 2022           WEI x86 64bit/MS Window

--- GAMS/Cplex Link licensed for continuous and discrete problems.
--- GMO setup time: 0.00s
--- GMO memory 0.51 Mb (peak 0.51 Mb)
--- Dictionary memory 0.00 Mb
--- Cplex 22.1.0.0 link memory 0.00 Mb (peak 0.01 Mb)
--- Starting Cplex

Version identifier: 22.1.0.0 | 2022-03-09 | 1a383f8ce
CPXPARAM_Advance                                 0
CPXPARAM_Simplex_Display                         2
CPXPARAM_Threads                                 16
CPXPARAM_Parallel                                1
CPXPARAM_MIP_Display                             4
CPXPARAM_MIP_Pool_Capacity                       0
CPXPARAM_MIP_Tolerances_AbsMIPGap                0
CPXPARAM_MIP_Tolerances_MIPGap                   0
Generic callback                                 0x50
Found incumbent of value 19.995033 after 0.00 sec. (0.00 ticks)
Tried aggregator 1 time.
MIP Presolve eliminated 0 rows and 1 columns.
MIP Presolve added 270 rows and 135 columns.
Reduced MIP has 280 rows, 165 columns, and 570 nonzeros.
Reduced MIP has 165 binaries, 0 generals, 0 SOSs, and 0 indicators.
Presolve time = 0.00 sec. (0.05 ticks)
Probing time = 0.00 sec. (0.05 ticks)
Tried aggregator 1 time.
Detecting symmetries...
MIP Presolve eliminated 135 rows and 0 columns.
Reduced MIP has 145 rows, 165 columns, and 435 nonzeros.
Reduced MIP has 165 binaries, 0 generals, 0 SOSs, and 0 indicators.
Presolve time = 0.00 sec. (0.46 ticks)
Classifier predicts products in MIQP should be linearized.
Probing time = 0.00 sec. (0.05 ticks)
Clique table members: 10.
MIP emphasis: balance optimality and feasibility.
MIP search method: dynamic search.
Parallel mode: deterministic, using up to 16 threads.
Parallel mode: deterministic, using up to 3 threads for parallel tasks at root LP.
Tried aggregator 1 time.
No LP presolve or aggregator reductions.
Presolve time = 0.00 sec. (0.06 ticks)
Initializing dual steep norms . . .

Iteration      Dual Objective            In Variable           Out Variable
     1               0.000000            x(n1,brown)              c12 slack
     2               0.000000            x(n2,brown)              c66 slack
     3               0.000000            x(n3,brown)             c114 slack
     4               0.000000            x(n4,brown)             c156 slack
     5               0.000000            x(n5,brown)             c192 slack
     6               0.000000            x(n6,brown)             c222 slack
     7               0.000000            x(n7,brown)             c246 slack
     8               0.000000            x(n8,brown)             c264 slack
     9               0.000000           x(n10,brown)             c276 slack
    10               0.000000             c246 slack             c248 slack
    11               0.000000             c222 slack             c226 slack
    12               0.000000             c192 slack             c198 slack
    13               0.000000             c156 slack             c164 slack
    14               0.000000             c114 slack             c124 slack
    15               0.000000              c66 slack              c78 slack
    16               0.000000              c12 slack              c26 slack
    17               0.000000        x(n9,lightblue)              c48 slack
Root relaxation solution time = 0.00 sec. (0.22 ticks)

        Nodes                                         Cuts/
   Node  Left     Objective  IInf  Best Integer    Best Bound    ItCnt     Gap

*     0+    0                           19.9950        0.0000           100.00%
Found incumbent of value 19.995033 after 0.00 sec. (1.10 ticks)
*     0+    0                            5.6924        0.0000           100.00%
Found incumbent of value 5.692404 after 0.00 sec. (1.10 ticks)
*     0+    0                            5.0181        0.0000           100.00%
Found incumbent of value 5.018129 after 0.00 sec. (1.10 ticks)
      0     0        0.0000    20        5.0181        0.0000       17  100.00%
      0     0        0.0000    28        5.0181   ZeroHalf: 2       24  100.00%
      0     0        0.0000    20        5.0181      Cuts: 21       39  100.00%
      0     0        0.0000    28        5.0181  ZeroHalf: 30       67  100.00%
*     0+    0                            4.3327        0.0000           100.00%
Found incumbent of value 4.332652 after 0.00 sec. (7.60 ticks)
*     0+    0                            3.6298        0.0000           100.00%
Found incumbent of value 3.629754 after 0.00 sec. (8.28 ticks)
*     0+    0                            2.9816        0.0000           100.00%
Found incumbent of value 2.981574 after 0.00 sec. (8.71 ticks)
      0     0        cutoff              2.9816        2.9816       67    0.00%
Elapsed time = 0.02 sec. (8.71 ticks, tree = 0.01 MB)

Zero-half cuts applied:  9

Root node processing (before b&c):
  Real time             =    0.02 sec. (8.71 ticks)
Parallel b&c, 16 threads:
  Real time             =    0.00 sec. (0.00 ticks)
  Sync time (average)   =    0.00 sec.
  Wait time (average)   =    0.00 sec.
                          ------------
Total (root+branch&cut) =    0.02 sec. (8.71 ticks)

--- MIQP status (101): integer optimal solution.
--- Cplex Time: 0.02sec (det. 8.71 ticks)

--- Fixing integer variables and solving final QP...

Version identifier: 22.1.0.0 | 2022-03-09 | 1a383f8ce
CPXPARAM_Advance                                 2
CPXPARAM_Simplex_Display                         2
CPXPARAM_Threads                                 16
CPXPARAM_Parallel                                1
CPXPARAM_MIP_Display                             4
CPXPARAM_MIP_Pool_Capacity                       0
CPXPARAM_MIP_Tolerances_AbsMIPGap                0
CPXPARAM_MIP_Tolerances_MIPGap                   0
Number of nonzeros in lower triangle of Q = 135
Using Approximate Minimum Degree ordering
Total time for automatic ordering = 0.00 sec. (0.00 ticks)
Summary statistics for factor of Q:
  Rows in Factor            = 30
  Integer space required    = 30
  Total non-zeros in factor = 165
  Total FP ops to factor    = 1155
Note: Q in objective is not positive semi-definite.
Tried aggregator 1 time.
QP Presolve eliminated 10 rows and 31 columns.
All rows and columns eliminated.
Presolve time = 0.00 sec. (0.03 ticks)

--- Fixed MIQP status (1): optimal.
--- Cplex Time: 0.00sec (det. 0.05 ticks)


Proven optimal solution
MIP Solution:            2.981574    (67 iterations, 0 nodes)
Final Solve:             2.981574    (0 iterations)

Best possible:           2.981574
Absolute gap:            0.000000
Relative gap:            0.000000

--- Reading solution for model color1
--- Executing after solve: elapsed 0:00:00.063
--- ColoringProblemGraph.gms(93) 4 Mb
--- Putfile gv2 C:\projects\OptimizationModels\GraphColoring\graph2.gv
*** Status: Normal completion
--- Job ColoringProblemGraph.gms Stop 07/12/22 10:15:00 elapsed 0:00:00.063
